output/quattro.dimacs
c
c /Users/conrad/Documents/EC/Course_deuxiemme_annee/Logique/projet_binero/output/quattro.dimacs
c
p cnf 176 205
1 0 
133 134 135 136 0 
133 -1 5 0 
134 -2 6 0 
135 -3 7 0 
136 -4 8 0 
133 1 -5 0 
134 2 -6 0 
135 3 -7 0 
136 4 -8 0 
-133 1 5 0 
-133 -1 -5 0 
-134 2 6 0 
-134 -2 -6 0 
-135 3 7 0 
-135 -3 -7 0 
-136 4 8 0 
-136 -4 -8 0 
137 138 139 140 0 
137 -1 9 0 
138 -2 10 0 
139 -3 11 0 
140 -4 12 0 
137 1 -9 0 
138 2 -10 0 
139 3 -11 0 
140 4 -12 0 
-137 1 9 0 
-137 -1 -9 0 
-138 2 10 0 
-138 -2 -10 0 
-139 3 11 0 
-139 -3 -11 0 
-140 4 12 0 
-140 -4 -12 0 
141 142 143 144 0 
141 -1 13 0 
142 -2 14 0 
143 -3 15 0 
144 -4 16 0 
141 1 -13 0 
142 2 -14 0 
143 3 -15 0 
144 4 -16 0 
-141 1 13 0 
-141 -1 -13 0 
-142 2 14 0 
-142 -2 -14 0 
-143 3 15 0 
-143 -3 -15 0 
-144 4 16 0 
-144 -4 -16 0 
153 154 155 156 0 
153 -5 9 0 
154 -6 10 0 
155 -7 11 0 
156 -8 12 0 
153 5 -9 0 
154 6 -10 0 
155 7 -11 0 
156 8 -12 0 
-153 5 9 0 
-153 -5 -9 0 
-154 6 10 0 
-154 -6 -10 0 
-155 7 11 0 
-155 -7 -11 0 
-156 8 12 0 
-156 -8 -12 0 
157 158 159 160 0 
157 -5 13 0 
158 -6 14 0 
159 -7 15 0 
160 -8 16 0 
157 5 -13 0 
158 6 -14 0 
159 7 -15 0 
160 8 -16 0 
-157 5 13 0 
-157 -5 -13 0 
-158 6 14 0 
-158 -6 -14 0 
-159 7 15 0 
-159 -7 -15 0 
-160 8 16 0 
-160 -8 -16 0 
173 174 175 176 0 
173 -9 13 0 
174 -10 14 0 
175 -11 15 0 
176 -12 16 0 
173 9 -13 0 
174 10 -14 0 
175 11 -15 0 
176 12 -16 0 
-173 9 13 0 
-173 -9 -13 0 
-174 10 14 0 
-174 -10 -14 0 
-175 11 15 0 
-175 -11 -15 0 
-176 12 16 0 
-176 -12 -16 0 
133 134 135 136 0 
133 -1 2 0 
134 -5 6 0 
135 -9 10 0 
136 -13 14 0 
133 1 -2 0 
134 5 -6 0 
135 9 -10 0 
136 13 -14 0 
-133 1 2 0 
-133 -1 -2 0 
-134 5 6 0 
-134 -5 -6 0 
-135 9 10 0 
-135 -9 -10 0 
-136 13 14 0 
-136 -13 -14 0 
137 138 139 140 0 
137 -1 3 0 
138 -5 7 0 
139 -9 11 0 
140 -13 15 0 
137 1 -3 0 
138 5 -7 0 
139 9 -11 0 
140 13 -15 0 
-137 1 3 0 
-137 -1 -3 0 
-138 5 7 0 
-138 -5 -7 0 
-139 9 11 0 
-139 -9 -11 0 
-140 13 15 0 
-140 -13 -15 0 
141 142 143 144 0 
141 -1 4 0 
142 -5 8 0 
143 -9 12 0 
144 -13 16 0 
141 1 -4 0 
142 5 -8 0 
143 9 -12 0 
144 13 -16 0 
-141 1 4 0 
-141 -1 -4 0 
-142 5 8 0 
-142 -5 -8 0 
-143 9 12 0 
-143 -9 -12 0 
-144 13 16 0 
-144 -13 -16 0 
153 154 155 156 0 
153 -2 3 0 
154 -6 7 0 
155 -10 11 0 
156 -14 15 0 
153 2 -3 0 
154 6 -7 0 
155 10 -11 0 
156 14 -15 0 
-153 2 3 0 
-153 -2 -3 0 
-154 6 7 0 
-154 -6 -7 0 
-155 10 11 0 
-155 -10 -11 0 
-156 14 15 0 
-156 -14 -15 0 
157 158 159 160 0 
157 -2 4 0 
158 -6 8 0 
159 -10 12 0 
160 -14 16 0 
157 2 -4 0 
158 6 -8 0 
159 10 -12 0 
160 14 -16 0 
-157 2 4 0 
-157 -2 -4 0 
-158 6 8 0 
-158 -6 -8 0 
-159 10 12 0 
-159 -10 -12 0 
-160 14 16 0 
-160 -14 -16 0 
173 174 175 176 0 
173 -3 4 0 
174 -7 8 0 
175 -11 12 0 
176 -15 16 0 
173 3 -4 0 
174 7 -8 0 
175 11 -12 0 
176 15 -16 0 
-173 3 4 0 
-173 -3 -4 0 
-174 7 8 0 
-174 -7 -8 0 
-175 11 12 0 
-175 -11 -12 0 
-176 15 16 0 
-176 -15 -16 0 
