dataIn/quattro
c
c un petit binero
c
binero 4 4
1 . . .
. . . .
. . . . 
. . . . 